AME : levi30_5
COMMENT : 30: 30x24 -city problem (levikoppenhol)
TYPE : TSP
DIMENSION : 30
EDGE_WEIGHT_TYPE : EUC_2D
NODE_COORD_SECTION
1 21 9
2 7 2
3 13 24
4 7 17
5 15 9
6 6 29
7 19 6
8 8 13
9 8 15
10 11 0
11 14 17
12 15 26
13 3 29
14 5 21
15 5 13
16 21 17
17 17 4
18 4 25
19 21 3
20 11 1
21 2 8
22 11 14
23 8 26
24 23 25
25 7 8
26 12 6
27 14 7
28 16 10
29 13 18
30 22 9
EOF